p cnf 1408 2218
2 -56 -96 101 0
2 -56 -96 -101 0
-8 -12 -24 102 0
-24 -67 83 -102 0
2 86 103 104 0
2 86 103 -104 0
2 86 -103 104 0
2 86 -103 -104 0
48 -61 78 105 0
48 -61 78 -105 0
13 -44 -53 85 0
-57 -59 65 106 0
-57 -59 65 -106 0
21 22 -31 107 0
-31 -54 -107 108 0
-54 -60 95 -108 0
15 32 42 109 0
42 43 -109 110 0
43 -46 -110 111 0
-46 -56 -111 112 0
-56 71 -82 -112 0
-24 27 -33 113 0
-33 36 91 -113 0
-29 45 85 114 0
-29 45 85 -114 0
35 -42 51 115 0
51 -58 -115 116 0
-58 82 91 -116 0
-2 20 117 118 0
-2 20 117 -118 0
-2 20 -117 118 0
-2 20 -117 -118 0
11 -15 -37 119 0
-37 40 -119 120 0
40 46 -120 121 0
46 -53 -121 122 0
-53 -56 -122 123 0
-56 77 -85 -123 0
-4 17 -22 124 0
-22 -38 -124 125 0
-38 41 -125 126 0
41 -44 -74 -126 0
-10 -19 30 127 0
30 -31 -127 128 0
-31 -49 -128 129 0
-49 -89 92 -129 0
37 76 88 130 0
37 76 88 -130 0
41 68 -96 98 0
-5 -31 86 131 0
-5 -31 86 -131 0
-24 39 -76 132 0
-24 39 -76 -132 0
-4 -46 133 134 0
-4 -46 133 -134 0
-4 -46 -133 134 0
-4 -46 -133 -134 0
-14 -23 43 135 0
43 -57 -135 136 0
-57 -69 98 -136 0
-37 -51 57 137 0
57 64 -137 138 0
64 91 -95 -138 0
23 -91 99 139 0
23 -91 99 -139 0
-85 98 140 141 0
-85 98 140 -141 0
-85 98 -140 141 0
-85 98 -140 -141 0
8 -36 52 142 0
52 67 -142 143 0
67 -73 -143 144 0
-73 -83 90 -144 0
15 -16 -38 145 0
-38 62 98 -145 0
-28 -39 -44 146 0
-28 -39 -44 -146 0
-22 -77 147 148 0
-22 -77 147 -148 0
-22 -77 -147 148 0
-22 -77 -147 -148 0
18 -31 -46 149 0
18 -31 -46 -149 0
-2 -20 23 150 0
23 -33 -150 151 0
-33 48 66 -151 0
-30 -42 -48 152 0
-48 71 -152 153 0
71 76 -153 154 0
76 92 94 -154 0
33 73 78 93 0
-11 25 -27 -47 0
33 -34 46 91 0
15 17 -39 155 0
-39 42 -155 156 0
42 44 -65 -156 0
22 -27 55 157 0
55 66 -157 158 0
66 -68 -158 159 0
-68 -72 99 -159 0
-39 43 -60 73 0
17 -27 -65 -100 0
-16 -25 31 160 0
31 -85 -97 -160 0
-1 25 27 80 0
35 48 -68 161 0
-68 -77 -161 162 0
-77 -84 88 -162 0
-10 -39 -50 163 0
-50 -67 -163 164 0
-67 70 -85 -164 0
-28 -60 165 166 0
-28 -60 165 -166 0
-28 -60 -165 166 0
-28 -60 -165 -166 0
-8 19 -61 167 0
-61 81 -167 168 0
81 -86 89 -168 0
-7 12 -25 169 0
-25 43 -169 170 0
43 -53 -170 171 0
-53 57 -171 172 0
57 60 -172 173 0
60 -62 -173 174 0
-62 -71 -97 -174 0
46 51 58 175 0
46 51 58 -175 0
52 90 176 177 0
52 90 176 -177 0
52 90 -176 177 0
52 90 -176 -177 0
-1 -18 -55 178 0
-55 65 -178 179 0
65 83 -179 180 0
83 90 91 -180 0
34 42 45 181 0
45 52 -181 182 0
52 -85 88 -182 0
16 -22 -39 183 0
-39 -41 -80 -183 0
25 -42 -47 184 0
-47 50 -184 185 0
50 64 -185 186 0
64 -75 97 -186 0
-15 33 36 187 0
36 42 -58 -187 0
-20 -49 -75 90 0
-5 40 -42 188 0
-42 75 86 -188 0
28 49 50 91 0
30 45 57 189 0
57 79 88 -189 0
44 -47 89 190 0
44 -47 89 -190 0
12 -29 -73 -77 0
-8 -12 -24 81 0
-3 5 -6 191 0
-6 16 -191 192 0
16 -20 -192 193 0
-20 -23 -193 194 0
-23 27 -194 195 0
27 -63 85 -195 0
26 50 53 196 0
53 56 -59 -196 0
65 -76 -87 197 0
65 -76 -87 -197 0
2 -14 16 198 0
16 20 -198 199 0
20 66 -199 200 0
66 84 -89 -200 0
21 25 37 201 0
37 -54 -201 202 0
-54 -93 98 -202 0
-38 -57 74 -99 0
-18 67 77 -86 0
2 63 67 -70 0
2 4 -18 -34 0
-1 -14 67 203 0
67 -82 -203 204 0
-82 93 99 -204 0
-41 -46 -53 205 0
-53 -72 -96 -205 0
-16 78 83 206 0
83 -86 -99 -206 0
5 67 -69 207 0
-69 -72 -93 -207 0
24 48 -58 208 0
24 48 -58 -208 0
-14 52 60 209 0
-14 52 60 -209 0
12 98 99 210 0
12 98 99 -210 0
66 -75 96 211 0
66 -75 96 -211 0
-10 57 -69 212 0
-69 73 -212 213 0
73 75 -213 214 0
75 -78 86 -214 0
-32 67 73 215 0
-32 67 73 -215 0
-3 -7 34 -58 0
-36 -46 57 216 0
57 58 -99 -216 0
-10 17 22 217 0
22 -27 -217 218 0
-27 37 -218 219 0
37 -58 71 -219 0
2 11 54 220 0
54 88 -93 -220 0
1 -7 27 221 0
27 74 -221 222 0
74 -76 -222 223 0
-76 -81 -223 224 0
-81 85 91 -224 0
28 45 -63 225 0
-63 -76 -225 226 0
-76 80 -226 227 0
80 92 -95 -227 0
-13 -33 -36 -52 0
-30 -39 -59 228 0
-30 -39 -59 -228 0
18 29 -30 229 0
-30 -40 -229 230 0
-40 -43 -230 231 0
-43 46 -231 232 0
46 -54 -232 233 0
-54 -56 -100 -233 0
-13 28 50 234 0
50 -73 -77 -234 0
11 -21 -29 235 0
-29 -34 -235 236 0
-34 -66 79 -236 0
-4 -57 -59 83 0
-12 16 -68 237 0
-68 -71 -96 -237 0
8 13 72 238 0
8 13 72 -238 0
-20 -60 85 239 0
-20 -60 85 -239 0
32 66 -80 240 0
-80 -95 100 -240 0
12 13 -25 241 0
-25 -55 -241 242 0
-55 -67 84 -242 0
9 12 14 243 0
14 46 -243 244 0
46 84 -90 -244 0
18 21 22 245 0
22 -54 -245 246 0
-54 56 -246 247 0
56 -76 -247 248 0
-76 80 -95 -248 0
8 -78 98 249 0
8 -78 98 -249 0
6 -52 72 -86 0
-11 14 -63 95 0
27 -79 250 251 0
27 -79 250 -251 0
27 -79 -250 251 0
27 -79 -250 -251 0
3 5 7 252 0
7 42 -252 253 0
42 -51 -253 254 0
-51 54 -254 255 0
54 74 75 -255 0
1 6 -48 84 0
30 -39 -51 256 0
-51 -79 -92 -256 0
-3 62 73 257 0
-3 62 73 -257 0
-12 21 31 258 0
31 -61 67 -258 0
-1 57 76 77 0
-33 -53 64 259 0
64 -69 -259 260 0
-69 -88 -260 261 0
-88 90 95 -261 0
35 98 -100 262 0
35 98 -100 -262 0
-5 -27 -37 263 0
-37 80 -263 264 0
80 82 -264 265 0
82 -97 99 -265 0
-23 -38 266 267 0
-23 -38 266 -267 0
-23 -38 -266 267 0
-23 -38 -266 -267 0
17 56 -100 268 0
17 56 -100 -268 0
-82 -95 269 270 0
-82 -95 269 -270 0
-82 -95 -269 270 0
-82 -95 -269 -270 0
-14 -16 -39 271 0
-39 41 -42 -271 0
20 58 -59 272 0
-59 -73 83 -272 0
-1 32 59 273 0
59 68 -273 274 0
68 -80 -84 -274 0
53 -56 275 276 0
53 -56 275 -276 0
53 -56 -275 276 0
53 -56 -275 -276 0
43 54 65 277 0
65 68 97 -277 0
22 -36 40 278 0
40 -51 -56 -278 0
5 -12 -21 279 0
-21 -38 -43 -279 0
5 61 62 280 0
62 -78 -280 281 0
-78 82 84 -281 0
7 8 -23 282 0
-23 -26 -282 283 0
-26 53 90 -283 0
10 -25 -34 284 0
-34 -71 -96 -284 0
-6 18 -19 285 0
-19 85 88 -285 0
-10 12 13 286 0
13 -15 -286 287 0
-15 17 -287 288 0
17 18 -288 289 0
18 -20 -289 290 0
-20 -25 85 -290 0
-5 71 -77 -89 0
-63 84 291 292 0
-63 84 291 -292 0
-63 84 -291 292 0
-63 84 -291 -292 0
-14 -23 35 293 0
35 46 -64 -293 0
-48 56 57 294 0
57 76 91 -294 0
9 -27 62 -98 0
1 -41 46 295 0
46 63 -91 -295 0
-11 -19 47 84 0
-38 44 66 296 0
66 80 -95 -296 0
95 -99 297 298 0
95 -99 297 -298 0
95 -99 -297 298 0
95 -99 -297 -298 0
-10 21 -60 -67 0
-33 -38 85 99 0
2 -16 -19 299 0
-19 29 -299 300 0
29 55 87 -300 0
4 68 75 301 0
75 84 -301 302 0
84 86 91 -302 0
-22 -31 42 303 0
42 43 -303 304 0
43 50 -304 305 0
50 -60 -305 306 0
-60 -87 95 -306 0
-14 33 -38 307 0
-38 49 -307 308 0
49 -66 -308 309 0
-66 71 -91 -309 0
-8 49 53 -82 0
-22 -35 54 310 0
54 -66 91 -310 0
-37 56 89 311 0
-37 56 89 -311 0
34 44 58 312 0
58 -64 -312 313 0
-64 67 -313 314 0
67 85 -87 -314 0
-23 43 72 315 0
-23 43 72 -315 0
5 6 -11 316 0
-11 -25 -316 317 0
-25 33 -317 318 0
33 -35 -85 -318 0
47 89 319 320 0
47 89 319 -320 0
47 89 -319 320 0
47 89 -319 -320 0
-29 40 321 322 0
-29 40 321 -322 0
-29 40 -321 322 0
-29 40 -321 -322 0
12 -27 -32 323 0
-32 -36 -323 324 0
-36 49 -324 325 0
49 54 -325 326 0
54 -67 -326 327 0
-67 71 -327 328 0
71 -93 97 -328 0
14 -21 -89 329 0
14 -21 -89 -329 0
32 -42 -53 -90 0
31 33 51 330 0
51 87 -330 331 0
87 -90 97 -331 0
17 -48 332 333 0
17 -48 332 -333 0
17 -48 -332 333 0
17 -48 -332 -333 0
6 56 59 334 0
59 -86 92 -334 0
-42 45 -55 335 0
-42 45 -55 -335 0
29 30 61 336 0
29 30 61 -336 0
28 34 49 337 0
49 64 -337 338 0
64 71 -76 -338 0
-11 -28 -88 339 0
-11 -28 -88 -339 0
-1 20 25 340 0
25 34 -340 341 0
34 -46 -341 342 0
-46 -87 90 -342 0
8 10 -31 343 0
-31 -33 -343 344 0
-33 42 -344 345 0
42 -48 -52 -345 0
51 56 -71 -97 0
9 36 -71 -100 0
25 81 346 347 0
25 81 346 -347 0
25 81 -346 347 0
25 81 -346 -347 0
-48 -58 -81 348 0
-81 88 -94 -348 0
14 17 -24 349 0
-24 30 -349 350 0
30 82 -86 -350 0
33 47 48 -83 0
-23 -27 55 351 0
55 56 -351 352 0
56 -63 -352 353 0
-63 -68 -74 -353 0
10 12 29 354 0
29 -42 -354 355 0
-42 49 -355 356 0
49 -50 -356 357 0
-50 -87 -357 358 0
-87 96 -99 -358 0
-5 21 -32 359 0
-32 -64 -359 360 0
-64 -70 -83 -360 0
-4 49 56 361 0
56 -57 95 -361 0
-18 -38 43 362 0
43 -50 -362 363 0
-50 -65 -363 364 0
-65 -69 -74 -364 0
1 41 -67 365 0
-67 -81 -365 366 0
-81 -85 -366 367 0
-85 -89 99 -367 0
52 59 -70 -99 0
29 -42 -69 368 0
-69 -72 85 -368 0
4 -10 -34 369 0
-34 81 -369 370 0
81 -86 -370 371 0
-86 93 94 -371 0
-12 38 -48 372 0
-48 68 -372 373 0
68 70 -373 374 0
70 83 -374 375 0
83 84 100 -375 0
63 76 79 376 0
79 81 -95 -376 0
-11 -52 -75 -81 0
-10 -21 64 377 0
64 65 -377 378 0
65 -71 92 -378 0
23 61 87 -100 0
23 -44 52 379 0
52 74 80 -379 0
-16 -35 48 380 0
48 -89 -96 -380 0
80 -93 381 382 0
80 -93 381 -382 0
80 -93 -381 382 0
80 -93 -381 -382 0
-3 -18 -21 383 0
-21 -42 -383 384 0
-42 -54 -384 385 0
-54 78 -385 386 0
78 79 -90 -386 0
20 52 -57 387 0
-57 64 -387 388 0
64 91 -92 -388 0
-29 32 -41 389 0
-41 -44 -389 390 0
-44 -80 -390 391 0
-80 -85 -391 392 0
-85 91 92 -392 0
23 -38 42 100 0
7 -8 -11 393 0
-11 -89 94 -393 0
-13 23 76 -98 0
10 22 46 394 0
46 -47 -394 395 0
-47 64 -395 396 0
64 65 -396 397 0
65 76 -397 398 0
76 84 -398 399 0
84 -92 -99 -399 0
10 -16 -60 400 0
-60 64 -400 401 0
64 -72 -401 402 0
-72 75 -76 -402 0
-17 -21 -33 403 0
-33 -76 92 -403 0
11 95 404 405 0
11 95 404 -405 0
11 95 -404 405 0
11 95 -404 -405 0
57 -70 87 406 0
57 -70 87 -406 0
22 -53 -62 94 0
4 -66 -68 74 0
30 31 -40 407 0
-40 -63 -69 -407 0
24 41 51 408 0
51 52 -408 409 0
52 -55 -409 410 0
-55 -65 -410 411 0
-65 80 -91 -411 0
-33 36 -42 412 0
-42 45 100 -412 0
-38 54 94 413 0
-38 54 94 -413 0
44 -51 60 414 0
60 -67 -414 415 0
-67 91 100 -415 0
-11 29 416 417 0
-11 29 416 -417 0
-11 29 -416 417 0
-11 29 -416 -417 0
20 -24 -46 418 0
-46 49 -418 419 0
49 55 -419 420 0
55 -62 -420 421 0
-62 -65 -421 422 0
-65 86 -94 -422 0
1 -13 26 423 0
26 -31 -423 424 0
-31 -47 -424 425 0
-47 50 -425 426 0
50 -53 -83 -426 0
-19 -28 39 427 0
39 -40 -427 428 0
-40 -58 -98 -428 0
-5 7 46 429 0
46 85 97 -429 0
50 77 430 431 0
50 77 430 -431 0
50 77 -430 431 0
50 77 -430 -431 0
-14 -40 95 432 0
-14 -40 95 -432 0
-33 48 -85 433 0
-33 48 -85 -433 0
7 -13 -55 434 0
7 -13 -55 -434 0
-4 -23 -32 435 0
-32 52 -435 436 0
52 -66 -78 -436 0
8 -46 -60 437 0
-60 66 -437 438 0
66 73 100 -438 0
7 32 -100 439 0
7 32 -100 -439 0
7 17 -45 440 0
-45 61 -440 441 0
61 76 -441 442 0
76 -82 -442 443 0
-82 -92 99 -443 0
24 -25 -47 71 0
-37 -48 -53 444 0
-37 -48 -53 -444 0
-31 -86 445 446 0
-31 -86 445 -446 0
-31 -86 -445 446 0
-31 -86 -445 -446 0
27 -40 -55 447 0
27 -40 -55 -447 0
1 3 -11 448 0
-11 -29 -448 449 0
-29 32 -449 450 0
32 -42 -450 451 0
-42 57 75 -451 0
2 -39 -51 452 0
-51 -57 -452 453 0
-57 80 85 -453 0
42 82 87 454 0
42 82 87 -454 0
-20 34 -36 -56 0
42 -43 55 100 0
8 24 26 455 0
26 -48 -455 456 0
-48 51 -456 457 0
51 53 -74 -457 0
31 -36 64 458 0
64 75 -458 459 0
75 -77 -81 -459 0
-9 -48 52 460 0
52 -69 82 -460 0
-6 26 -36 -74 0
-25 -34 40 -94 0
-10 34 36 89 0
44 57 -77 461 0
-77 -86 -461 462 0
-86 -93 97 -462 0
-19 -48 -59 463 0
-59 -76 -463 464 0
-76 79 -94 -464 0
-37 -69 465 466 0
-37 -69 465 -466 0
-37 -69 -465 466 0
-37 -69 -465 -466 0
-6 -17 28 467 0
28 -70 -467 468 0
-70 90 -468 469 0
90 -95 98 -469 0
-16 21 -34 470 0
-34 52 -470 471 0
52 -62 -471 472 0
-62 66 -472 473 0
66 69 -473 474 0
69 -71 -80 -474 0
55 60 67 475 0
55 60 67 -475 0
61 99 476 477 0
61 99 476 -477 0
61 99 -476 477 0
61 99 -476 -477 0
-10 -27 -64 478 0
-64 74 -478 479 0
74 92 -479 480 0
92 99 100 -480 0
43 51 54 481 0
54 61 -481 482 0
61 -94 97 -482 0
6 25 -31 483 0
-31 -48 -483 484 0
-48 -50 -89 -484 0
34 -51 -56 485 0
-56 59 -485 486 0
59 73 -84 -486 0
-24 42 45 487 0
45 51 -67 -487 0
-29 -58 -84 99 0
-14 49 -51 488 0
-51 84 95 -488 0
37 58 59 100 0
39 54 66 489 0
66 88 97 -489 0
53 -56 98 490 0
53 -56 98 -490 0
21 -38 -82 -86 0
-17 -21 -33 90 0
-12 14 -15 491 0
-15 25 -491 492 0
25 -29 -492 493 0
-29 -32 -493 494 0
-32 36 -494 495 0
36 -72 94 -495 0
35 59 62 496 0
62 65 -68 -496 0
74 -85 -96 497 0
74 -85 -96 -497 0
-2 7 11 498 0
11 -23 -498 499 0
-23 25 -499 500 0
25 29 -500 501 0
29 75 -501 502 0
75 93 -98 -502 0
-8 30 34 503 0
34 46 -63 -503 0
-47 -66 83 504 0
-47 -66 83 -504 0
-27 76 86 -95 0
11 72 76 -79 0
2 8 11 505 0
11 13 -505 506 0
13 -27 -43 -506 0
-5 -10 -23 507 0
-23 76 -91 -507 0
-8 -50 -55 508 0
-55 -62 -81 -508 0
-2 -25 87 509 0
87 92 -95 -509 0
14 76 -78 -81 0
33 57 -67 510 0
33 57 -67 -510 0
7 8 -23 511 0
-23 61 69 -511 0
5 21 512 513 0
5 21 512 -513 0
5 21 -512 513 0
5 21 -512 -513 0
75 -84 514 515 0
75 -84 514 -515 0
75 -84 -514 515 0
75 -84 -514 -515 0
-19 66 -78 516 0
-78 82 -516 517 0
82 84 -517 518 0
84 -87 95 -518 0
-41 76 82 519 0
-41 76 82 -519 0
-8 -12 -16 520 0
-16 43 -67 -520 0
-45 -55 66 67 0
-2 -19 26 521 0
26 31 -521 522 0
31 -36 -522 523 0
-36 46 -523 524 0
46 -67 80 -524 0
11 20 63 97 0
1 -4 10 525 0
10 -16 -525 526 0
-16 36 -526 527 0
36 83 -527 528 0
83 -85 -528 529 0
-85 -90 -529 530 0
-90 94 100 -530 0
37 54 -72 531 0
-72 -85 89 -531 0
-22 -42 -45 -61 0
-9 -39 -48 -68 0
27 38 -39 532 0
-39 -49 -532 533 0
-49 -52 -533 534 0
-52 55 -534 535 0
55 -63 -65 -535 0
-22 37 59 536 0
59 -82 -86 -536 0
20 -30 -38 537 0
-38 -43 -537 538 0
-43 -75 88 -538 0
-13 -66 -68 92 0
-5 18 539 540 0
-5 18 539 -540 0
-5 18 -539 540 0
-5 18 -539 -540 0
-21 25 -77 -80 0
17 22 81 541 0
17 22 81 -541 0
-29 -69 94 542 0
-29 -69 94 -542 0
-4 9 75 543 0
-4 9 75 -543 0
41 75 -89 544 0
41 75 -89 -544 0
21 22 -34 545 0
-34 -64 -545 546 0
-64 -76 93 -546 0
-4 18 21 547 0
21 23 -547 548 0
23 55 -548 549 0
55 93 -99 -549 0
7 27 30 550 0
30 31 -550 551 0
31 -63 -551 552 0
-63 65 -552 553 0
65 -85 89 -553 0
17 -87 554 555 0
17 -87 554 -555 0
17 -87 -554 555 0
17 -87 -554 -555 0
4 15 -61 556 0
-61 81 -95 -556 0
-20 23 -72 557 0
-20 23 -72 -557 0
36 -88 558 559 0
36 -88 558 -559 0
36 -88 -558 559 0
36 -88 -558 -559 0
12 14 16 560 0
16 51 -560 561 0
51 -60 -561 562 0
-60 63 -562 563 0
63 83 84 -563 0
10 15 -57 93 0
-1 -11 564 565 0
-1 -11 564 -565 0
-1 -11 -564 565 0
-1 -11 -564 -565 0
39 -48 -60 -88 0
-12 71 82 566 0
-12 71 82 -566 0
-21 30 40 567 0
40 -70 76 -567 0
4 -10 66 568 0
66 85 86 -568 0
7 -9 -42 569 0
-42 -62 -569 570 0
-62 73 -570 571 0
73 -78 -571 572 0
-78 -97 99 -572 0
-6 8 44 573 0
-6 8 44 -573 0
-14 -36 -46 574 0
-46 89 91 -574 0
-9 -32 -47 575 0
-9 -32 -47 -575 0
-4 26 65 576 0
-4 26 65 -576 0
-23 -25 -48 577 0
-48 50 -51 -577 0
29 67 -68 578 0
-68 -82 92 -578 0
-10 41 68 579 0
68 77 -579 580 0
77 -89 -93 -580 0
6 62 -65 581 0
6 62 -65 -581 0
52 63 74 77 0
31 -45 49 582 0
49 -60 -65 -582 0
14 -21 -30 583 0
-30 -47 -52 -583 0
14 70 71 584 0
71 -87 -584 585 0
-87 91 93 -585 0
-5 16 17 586 0
17 -32 -586 587 0
-32 -35 -587 588 0
-35 62 99 -588 0
19 -34 -43 -80 0
-15 27 -28 589 0
-28 94 97 -589 0
-19 21 22 590 0
22 -24 -590 591 0
-24 26 -591 592 0
26 27 -592 593 0
27 -29 -593 594 0
-29 -34 94 -594 0
-14 80 -86 -98 0
-72 93 595 596 0
-72 93 595 -596 0
-72 93 -595 596 0
-72 93 -595 -596 0
-23 -32 44 597 0
44 55 -73 -597 0
-7 -57 65 598 0
65 66 -598 599 0
66 85 100 -599 0
18 -36 71 600 0
18 -36 71 -600 0
10 -50 55 601 0
55 72 -100 -601 0
-4 -20 -28 602 0
-28 56 93 -602 0
4 -8 -47 603 0
-47 53 -603 604 0
53 75 89 -604 0
8 -19 30 605 0
30 -69 -76 -605 0
-42 -47 94 606 0
-42 -47 94 -606 0
11 -25 -28 607 0
-28 38 -607 608 0
38 64 96 -608 0
4 13 77 609 0
77 84 -609 610 0
84 93 -610 611 0
93 95 100 -611 0
-31 -40 51 612 0
51 52 -612 613 0
52 59 -613 614 0
59 -69 -96 -614 0
-23 42 -47 615 0
-47 58 -615 616 0
58 -75 -616 617 0
-75 80 -100 -617 0
-17 58 62 -91 0
-31 -44 63 618 0
63 -75 100 -618 0
-46 65 98 619 0
-46 65 98 -619 0
43 53 67 620 0
67 -73 -620 621 0
-73 76 -621 622 0
76 94 -96 -622 0
-32 52 81 623 0
-32 52 81 -623 0
14 15 -20 624 0
-20 -34 -624 625 0
-34 42 -625 626 0
42 -44 -94 -626 0
56 98 627 628 0
56 98 627 -628 0
56 98 -627 628 0
56 98 -627 -628 0
-2 6 -38 49 0
21 -36 -41 629 0
-41 -45 -629 630 0
-45 58 -630 631 0
58 63 -631 632 0
63 -76 80 -632 0
23 -30 -98 633 0
23 -30 -98 -633 0
6 41 -51 634 0
-51 -62 -99 -634 0
40 42 60 635 0
60 96 -99 -635 0
1 26 -57 636 0
1 26 -57 -636 0
15 65 68 -95 0
-51 54 -64 637 0
-51 54 -64 -637 0
38 39 70 638 0
38 39 70 -638 0
37 43 58 639 0
58 73 -639 640 0
73 80 -85 -640 0
-20 -37 -97 641 0
-20 -37 -97 -641 0
-10 29 34 642 0
34 43 -642 643 0
43 -55 -643 644 0
-55 -96 99 -644 0
-6 17 19 645 0
19 -40 -645 646 0
-40 -42 -646 647 0
-42 51 -647 648 0
51 -57 -61 -648 0
-9 60 65 -80 0
18 45 -80 649 0
18 45 -80 -649 0
-3 34 90 650 0
-3 34 90 -650 0
-57 -67 -90 97 0
23 26 -33 651 0
-33 39 -651 652 0
39 91 -95 -652 0
42 56 57 -92 0
5 -8 -32 653 0
-32 -36 -653 654 0
-36 64 -654 655 0
64 65 -655 656 0
65 -72 -656 657 0
-72 -77 -83 -657 0
19 21 38 658 0
38 -51 -658 659 0
-51 58 -659 660 0
58 -59 -96 -660 0
4 -14 30 661 0
30 -41 -661 662 0
-41 -73 -662 663 0
-73 -79 -92 -663 0
-13 58 65 -66 0
8 -27 -47 664 0
-47 52 -664 665 0
52 -59 -665 666 0
-59 -74 -666 667 0
-74 -78 -83 -667 0
-8 10 50 668 0
50 -76 -668 669 0
-76 -90 -669 670 0
-90 -94 -98 -670 0
61 68 -79 671 0
61 68 -79 -671 0
2 3 38 672 0
38 -51 -672 673 0
-51 -78 -673 674 0
-78 -81 94 -674 0
9 13 -19 675 0
-19 -43 -675 676 0
-43 90 -95 -676 0
-4 -21 47 677 0
47 -57 -677 678 0
-57 77 -678 679 0
77 79 -679 680 0
79 92 93 -680 0
72 85 88 90 0
1 -20 -61 681 0
-61 -84 -90 -681 0
-9 -19 -30 682 0
-30 73 -682 683 0
73 74 -80 -683 0
32 70 96 684 0
32 70 96 -684 0
-5 32 -53 685 0
-53 61 -685 686 0
61 83 89 -686 0
-2 -25 -44 687 0
-44 57 -98 -687 0
-1 -12 -27 688 0
-27 -30 -688 689 0
-30 -51 -689 690 0
-51 -63 -690 691 0
-63 87 -691 692 0
87 88 -99 -692 0
1 29 61 693 0
61 -66 -693 694 0
-66 73 100 -694 0
9 -38 41 695 0
41 -50 -695 696 0
-50 -53 -696 697 0
-53 -89 -697 698 0
-89 -94 100 -698 0
3 32 -47 51 0
-7 16 -17 699 0
-17 -20 -98 -699 0
-22 32 85 700 0
-22 32 85 -700 0
-1 -8 -47 701 0
-1 -8 -47 -701 0
19 31 55 702 0
55 -56 -702 703 0
-56 73 -703 704 0
73 74 -704 705 0
74 85 93 -705 0
1 19 -25 706 0
-25 -69 -706 707 0
-69 73 -707 708 0
73 -81 -708 709 0
-81 84 -85 -709 0
4 -26 -30 710 0
-30 -42 -85 -710 0
3 66 -79 96 0
31 -62 -71 711 0
31 -62 -71 -711 0
13 -75 -77 83 0
39 40 -49 712 0
-49 -72 -78 -712 0
9 33 50 713 0
50 60 -713 714 0
60 61 -714 715 0
61 -64 -715 716 0
-64 -74 -716 717 0
-74 89 -100 -717 0
3 -42 45 718 0
45 -51 54 -718 0
9 -47 63 719 0
9 -47 63 -719 0
53 -60 69 720 0
69 -76 100 -720 0
-3 -20 38 721 0
-3 -20 38 -721 0
29 -33 -55 722 0
-55 58 -722 723 0
58 64 -723 724 0
64 -71 -724 725 0
-71 -74 95 -725 0
-7 10 -22 726 0
-22 35 -726 727 0
35 -40 -727 728 0
-40 -56 -728 729 0
-56 59 -729 730 0
59 -62 -92 -730 0
6 -28 -37 731 0
-37 48 -731 732 0
48 -49 -67 -732 0
-14 16 55 94 0
4 59 86 733 0
4 59 86 -733 0
-23 -49 734 735 0
-23 -49 734 -735 0
-23 -49 -734 735 0
-23 -49 -734 -735 0
-42 57 -94 736 0
-42 57 -94 -736 0
16 -22 -64 737 0
16 -22 -64 -737 0
9 -13 -32 738 0
-32 -41 -738 739 0
-41 61 -739 740 0
61 -75 -87 -740 0
-9 17 -55 741 0
-55 -69 -741 742 0
-69 75 82 -742 0
-3 16 41 743 0
-3 16 41 -743 0
-1 8 744 745 0
-1 8 744 -745 0
-1 8 -744 745 0
-1 8 -744 -745 0
16 26 -54 746 0
-54 70 -746 747 0
70 85 -91 -747 0
33 -34 -56 80 0
-46 -57 -62 748 0
-46 -57 -62 -748 0
-40 -95 749 750 0
-40 -95 749 -750 0
-40 -95 -749 750 0
-40 -95 -749 -750 0
36 -49 -64 751 0
36 -49 -64 -751 0
10 12 -20 752 0
-20 -38 -752 753 0
-38 41 -753 754 0
41 -51 -754 755 0
-51 66 84 -755 0
11 -48 -60 756 0
-60 -66 -756 757 0
-66 89 94 -757 0
51 91 96 758 0
51 91 96 -758 0
9 -29 43 759 0
43 -45 -65 -759 0
51 -52 64 760 0
51 -52 64 -760 0
17 33 35 761 0
35 -57 -761 762 0
-57 60 -762 763 0
60 62 -83 -763 0
40 -45 73 764 0
73 84 -764 765 0
84 -86 -90 -765 0
-18 -57 61 766 0
61 -78 91 -766 0
-3 -15 35 767 0
35 -45 -83 -767 0
-34 -43 49 768 0
-34 -43 49 -768 0
-2 6 -19 769 0
-19 43 -769 770 0
43 45 98 -770 0
-3 53 66 771 0
66 -86 -95 -771 0
-28 -57 -68 772 0
-68 -85 88 -772 0
-4 7 -46 -78 0
-15 -26 37 773 0
37 -79 99 -773 0
-25 30 -43 774 0
-43 61 -774 775 0
61 -71 -775 776 0
-71 75 -776 777 0
75 78 -777 778 0
78 -80 -89 -778 0
8 64 69 76 0
1 8 9 70 0
-3 6 -19 779 0
-19 -36 -779 780 0
-36 -73 83 -780 0
52 60 63 70 0
15 34 -40 781 0
-40 -57 -781 782 0
-57 -59 -98 -782 0
43 -60 -65 783 0
-65 68 -783 784 0
68 82 -93 -784 0
8 -33 51 785 0
51 54 -785 786 0
54 60 -76 -786 0
4 -38 -67 -93 0
9 -23 58 787 0
58 -60 93 -787 0
6 46 67 68 0
7 48 63 788 0
63 75 97 -788 0
62 -65 789 790 0
62 -65 789 -790 0
62 -65 -789 790 0
62 -65 -789 -790 0
30 -47 -91 -95 0
3 -26 -30 791 0
-30 -42 99 -791 0
-21 23 -24 792 0
-24 34 -792 793 0
34 -38 -793 794 0
-38 -41 -794 795 0
-41 45 -81 -795 0
-5 44 68 796 0
68 71 -796 797 0
71 74 -77 -797 0
2 -7 83 -94 0
-11 16 20 798 0
20 -32 -798 799 0
-32 34 -799 800 0
34 38 84 -800 0
-17 39 43 801 0
43 55 -72 -801 0
-4 -56 -75 92 0
-36 85 95 802 0
-36 85 95 -802 0
20 81 85 -88 0
11 17 20 803 0
20 22 -803 804 0
22 -36 -52 -804 0
-14 -19 -32 805 0
-32 85 -100 -805 0
1 -4 -17 806 0
-17 -59 -806 807 0
-59 -64 -807 808 0
-64 -71 -90 -808 0
-11 -34 96 809 0
-11 -34 96 -809 0
23 85 -87 -90 0
42 66 -76 810 0
42 66 -76 -810 0
16 17 -32 811 0
-32 70 78 -811 0
14 30 812 813 0
14 30 812 -813 0
14 30 -812 813 0
14 30 -812 -813 0
4 84 -93 814 0
4 84 -93 -814 0
-28 75 -87 815 0
-87 91 -815 816 0
91 93 -96 -816 0
-50 85 91 817 0
-50 85 91 -817 0
-17 -21 -25 818 0
-25 52 -76 -818 0
-54 -64 75 76 0
6 -11 -28 819 0
-28 35 -819 820 0
35 40 -820 821 0
40 -45 -821 822 0
-45 55 -822 823 0
55 -76 89 -823 0
3 9 20 824 0
20 29 72 -824 0
10 -13 19 825 0
19 -25 -825 826 0
-25 45 -826 827 0
45 92 -827 828 0
92 -94 -99 -828 0
46 63 -81 829 0
-81 -94 98 -829 0
-31 -51 -54 -70 0
-18 -48 -57 -77 0
36 47 -48 830 0
-48 -58 -830 831 0
-58 -61 -831 832 0
-61 64 -832 833 0
64 -72 -74 -833 0
-31 46 68 834 0
68 -91 -95 -834 0
1 29 -39 835 0
-39 -47 -835 836 0
-47 -52 -836 837 0
-52 -84 97 -837 0
-22 -75 -77 838 0
-22 -75 -77 -838 0
-14 27 839 840 0
-14 27 839 -840 0
-14 27 -839 840 0
-14 27 -839 -840 0
-30 34 -86 -89 0
3 26 31 90 0
-38 -78 841 842 0
-38 -78 841 -842 0
-38 -78 -841 842 0
-38 -78 -841 -842 0
-13 18 84 843 0
-13 18 84 -843 0
8 50 84 -98 0
2 -8 30 844 0
30 31 -844 845 0
31 -43 -845 846 0
-43 -73 -85 -846 0
-13 27 30 847 0
30 32 64 -847 0
16 36 39 848 0
39 40 -848 849 0
40 -72 -849 850 0
-72 74 -850 851 0
74 -94 98 -851 0
-4 26 -96 852 0
-4 26 -96 -852 0
13 24 -70 90 0
-29 32 -81 853 0
-29 32 -81 -853 0
45 -97 854 855 0
45 -97 854 -855 0
45 -97 -854 855 0
45 -97 -854 -855 0
2 21 23 856 0
23 25 -856 857 0
25 60 -857 858 0
60 -69 -858 859 0
-69 72 -859 860 0
72 92 93 -860 0
19 24 -66 861 0
19 24 -66 -861 0
-10 -20 862 863 0
-10 -20 862 -863 0
-10 -20 -862 863 0
-10 -20 -862 -863 0
48 -57 -69 -97 0
-21 80 91 864 0
-21 80 91 -864 0
-30 39 49 865 0
49 -79 85 -865 0
-6 8 13 866 0
13 -19 -866 867 0
-19 75 -867 868 0
75 94 95 -868 0
16 -18 -51 869 0
-51 -71 -869 870 0
-71 82 -87 -870 0
-15 17 53 871 0
-15 17 53 -871 0
-23 -45 -55 872 0
-55 98 100 -872 0
-18 -41 -56 873 0
-18 -41 -56 -873 0
-13 35 74 874 0
-13 35 74 -874 0
1 -32 -34 875 0
-34 -57 -875 876 0
-57 59 -60 -876 0
-2 38 76 877 0
76 -77 -91 -877 0
-19 50 77 878 0
77 86 -98 -878 0
15 71 -74 879 0
15 71 -74 -879 0
61 72 83 86 0
40 -54 58 880 0
58 -69 -74 -880 0
2 23 -30 881 0
-30 -39 -881 882 0
-39 -56 -61 -882 0
8 23 79 883 0
79 80 -883 884 0
80 -96 100 -884 0
-14 25 26 885 0
26 -41 -885 886 0
-41 -44 71 -886 0
3 6 28 887 0
28 -43 -887 888 0
-43 -52 -89 -888 0
3 -24 36 -37 0
-7 -28 30 889 0
30 31 -889 890 0
31 -33 -890 891 0
-33 35 -891 892 0
35 36 -892 893 0
36 -38 -43 -893 0
2 -23 89 -95 0
9 -32 -41 894 0
-41 53 -894 895 0
53 64 -82 -895 0
-16 -66 74 896 0
74 75 94 -896 0
-9 27 -45 80 0
2 19 -59 897 0
-59 64 81 -897 0
-13 -29 -37 65 0
13 -17 -56 898 0
-56 62 -898 899 0
62 84 98 -899 0
3 17 -28 900 0
-28 39 -900 901 0
39 -78 -85 -901 0
5 -51 -56 902 0
5 -51 -56 -902 0
2 4 9 903 0
9 20 -903 904 0
20 -34 -904 905 0
-34 -37 -905 906 0
-37 47 73 -906 0
-5 13 22 907 0
22 86 93 -907 0
-9 -40 -49 908 0
-49 60 -908 909 0
60 61 -909 910 0
61 68 -78 -910 0
-32 51 -56 911 0
-56 67 -911 912 0
67 -84 89 -912 0
9 -26 67 913 0
67 71 -100 -913 0
7 -40 -53 914 0
-53 72 -84 -914 0
3 -5 -55 74 0
52 62 76 915 0
76 -82 85 -915 0
-3 -41 61 90 0
23 24 -29 916 0
-29 -43 -916 917 0
-43 51 -53 -917 0
7 35 918 919 0
7 35 918 -919 0
7 35 -918 919 0
7 35 -918 -919 0
-11 15 -47 58 0
-7 30 -45 920 0
-45 -50 -920 921 0
-50 -54 -921 922 0
-54 67 -922 923 0
67 72 -923 924 0
72 -85 89 -924 0
-8 32 -39 925 0
-8 32 -39 -925 0
5 -8 15 926 0
15 50 -926 927 0
50 -60 -71 -927 0
49 51 69 928 0
49 51 69 -928 0
-4 10 35 -66 0
24 74 77 929 0
24 74 77 -929 0
-60 63 -73 930 0
-60 63 -73 -930 0
47 48 79 931 0
47 48 79 -931 0
-6 46 52 932 0
52 67 -932 933 0
67 82 -933 934 0
82 89 -94 -934 0
-5 8 -29 -46 0
-19 38 43 935 0
43 52 -64 -935 0
-15 26 28 936 0
28 -49 -936 937 0
-49 -51 -937 938 0
-51 60 -938 939 0
60 -66 -70 -939 0
-18 69 74 -89 0
27 54 -89 940 0
27 54 -89 -940 0
6 -12 43 99 0
-4 -66 -76 -99 0
-1 32 35 941 0
35 -42 -941 942 0
-42 48 100 -942 0
51 65 66 943 0
51 65 66 -943 0
-5 14 -17 944 0
-17 -41 -944 945 0
-41 -45 -945 946 0
-45 73 -946 947 0
73 74 -947 948 0
74 -81 -948 949 0
-81 -86 -92 -949 0
-1 28 30 950 0
30 47 -950 951 0
47 -60 -951 952 0
-60 67 -68 -952 0
13 -23 39 953 0
39 -50 -953 954 0
-50 -82 -88 -954 0
-22 67 74 -75 0
-3 -7 17 955 0
17 -36 -955 956 0
-36 -56 -956 957 0
-56 61 -957 958 0
61 -68 -958 959 0
-68 -83 -959 960 0
-83 -87 -92 -960 0
-17 19 59 961 0
59 -85 -99 -961 0
3 70 77 -88 0
-4 11 12 962 0
12 47 -962 963 0
47 -60 -963 964 0
-60 -87 -90 -964 0
1 2 18 965 0
18 22 -965 966 0
22 -28 -966 967 0
-28 -52 99 -967 0
-13 -30 56 968 0
56 -66 -968 969 0
-66 86 88 -969 0
81 94 97 99 0
10 -29 -70 970 0
-70 -93 -99 -970 0
5 -18 -28 971 0
-28 -39 -971 972 0
-39 82 -972 973 0
82 83 -89 -973 0
41 79 974 975 0
41 79 974 -975 0
41 79 -974 975 0
41 79 -974 -975 0
-7 -14 41 976 0
41 -62 -976 977 0
-62 70 -977 978 0
70 92 98 -978 0
-11 -34 -53 66 0
-8 98 979 980 0
-8 98 979 -980 0
-8 98 -979 980 0
-8 98 -979 -980 0
9 -10 -21 981 0
-21 -36 -981 982 0
-36 -39 -982 983 0
-39 -60 -983 984 0
-60 -72 -984 985 0
-72 96 97 -985 0
-3 9 10 986 0
10 38 -986 987 0
38 70 -987 988 0
70 -75 82 -988 0
18 -47 50 989 0
50 -59 -989 990 0
-59 -62 -98 -990 0
-7 12 41 991 0
41 -56 60 -991 0
-16 25 -26 -29 0
-31 41 94 992 0
-31 41 94 -992 0
2 -10 -17 -56 0
28 40 64 993 0
64 -65 -993 994 0
-65 82 -994 995 0
82 83 94 -995 0
10 28 -34 996 0
-34 -78 -996 997 0
-78 82 -997 998 0
82 -90 -998 999 0
-90 93 -94 -999 0
13 -35 -39 1000 0
-39 -51 -94 -1000 0
5 29 1001 1002 0
5 29 1001 -1002 0
5 29 -1001 1002 0
5 29 -1001 -1002 0
12 75 -88 1003 0
12 75 -88 -1003 0
40 -71 -80 1004 0
40 -71 -80 -1004 0
22 -84 -86 92 0
-9 48 49 1005 0
49 -58 -1005 1006 0
-58 -81 -87 -1006 0
18 42 59 1007 0
59 69 -1007 1008 0
69 70 -1008 1009 0
70 -73 -1009 1010 0
-73 -83 98 -1010 0
12 -51 54 1011 0
54 -60 63 -1011 0
9 18 -56 72 0
62 -69 78 -85 0
4 -12 -29 47 0
-1 38 -42 1012 0
-42 -64 -1012 1013 0
-64 67 -1013 1014 0
67 73 -1014 1015 0
73 -80 -83 -1015 0
-16 19 -31 1016 0
-31 44 -1016 1017 0
44 -49 -1017 1018 0
-49 -65 -1018 1019 0
-65 68 -71 -1019 0
3 15 -37 1020 0
-37 -46 -1020 1021 0
-46 57 -1021 1022 0
57 -58 -76 -1022 0
-23 25 64 1023 0
-23 25 64 -1023 0
13 68 95 1024 0
13 68 95 -1024 0
-3 -32 -58 1025 0
-3 -32 -58 -1025 0
-51 66 1026 1027 0
-51 66 1026 -1027 0
-51 66 -1026 1027 0
-51 66 -1026 -1027 0
25 -31 -73 1028 0
25 -31 -73 -1028 0
18 -22 -41 1029 0
-41 -50 -1029 1030 0
-50 70 -1030 1031 0
70 -84 -96 -1031 0
-18 26 -64 1032 0
-64 -78 -1032 1033 0
-78 84 91 -1033 0
-12 25 50 1034 0
-12 25 50 -1034 0
-10 17 1035 1036 0
-10 17 1035 -1036 0
-10 17 -1035 1036 0
-10 17 -1035 -1036 0
25 35 -63 1037 0
-63 79 -1037 1038 0
79 94 -100 -1038 0
42 -43 -65 89 0
-4 -55 -66 -71 0
45 -58 -73 1039 0
45 -58 -73 -1039 0
3 19 21 1040 0
21 -29 -1040 1041 0
-29 -47 -1041 1042 0
-47 50 -1042 1043 0
50 -60 -1043 1044 0
-60 75 93 -1044 0
5 20 -57 1045 0
-57 -69 -1045 1046 0
-69 -75 98 -1046 0
60 100 1047 1048 0
60 100 1047 -1048 0
60 100 -1047 1048 0
60 100 -1047 -1048 0
18 -38 52 1049 0
52 -54 -74 -1049 0
60 -61 73 1050 0
60 -61 73 -1050 0
26 42 44 1051 0
44 -66 -1051 1052 0
-66 69 -1052 1053 0
69 71 -92 -1053 0
49 -54 82 1054 0
82 93 -1054 1055 0
93 -95 -99 -1055 0
-27 -66 70 1056 0
70 -87 100 -1056 0
-12 -24 44 1057 0
44 -54 -92 -1057 0
7 -43 -52 58 0
-4 -11 15 1058 0
15 -28 -1058 1059 0
-28 52 54 -1059 0
-12 62 75 -95 0
-37 -66 -77 1060 0
-77 -94 97 -1060 0
8 -13 16 1061 0
16 -55 -87 -1061 0
-24 -35 46 -88 0
-34 39 -52 1062 0
-52 70 -1062 1063 0
70 -80 -1063 1064 0
-80 84 -1064 1065 0
84 87 -1065 1066 0
87 -89 -98 -1066 0
17 73 78 85 0
10 17 18 79 0
-12 15 -28 1067 0
-28 -45 -1067 1068 0
-45 -82 92 -1068 0
-7 61 69 1069 0
69 72 79 -1069 0
-2 24 43 1070 0
43 -49 -1070 1071 0
-49 -66 -68 -1071 0
52 -69 -74 1072 0
-74 77 91 -1072 0
-2 17 -42 1073 0
-42 60 -1073 1074 0
60 63 -1074 1075 0
63 69 -85 -1075 0
2 13 -47 -76 0
18 -32 67 -69 0
6 15 55 1076 0
55 76 77 -1076 0
16 57 72 84 0
-5 71 -74 1077 0
-5 71 -74 -1077 0
8 39 -56 -100 0
12 -35 -39 -51 0
-30 32 -33 1078 0
-33 43 -1078 1079 0
43 -47 -1079 1080 0
-47 -50 -1080 1081 0
-50 54 -90 -1081 0
-3 -14 53 1082 0
53 77 -1082 1083 0
77 80 -1083 1084 0
80 83 -86 -1084 0
11 -16 92 1085 0
11 -16 92 -1085 0
-20 25 29 1086 0
29 -41 -1086 1087 0
-41 43 -1087 1088 0
43 47 93 -1088 0
1 -26 48 1089 0
48 52 -1089 1090 0
52 64 -81 -1090 0
4 -13 -65 -84 0
-45 94 1091 1092 0
-45 94 1091 -1092 0
-45 94 -1091 1092 0
-45 94 -1091 -1092 0
29 90 94 -97 0
-9 20 26 1093 0
26 29 -1093 1094 0
29 31 -1094 1095 0
31 -45 -61 -1095 0
-23 -28 -41 94 0
5 10 -13 1096 0
-13 -26 -1096 1097 0
-26 -68 -1097 1098 0
-68 -73 -1098 1099 0
-73 -80 -99 -1099 0
-20 -43 1100 1101 0
-20 -43 1100 -1101 0
-20 -43 -1100 1101 0
-20 -43 -1100 -1101 0
32 94 -96 -99 0
51 75 -85 1102 0
51 75 -85 -1102 0
25 26 -41 1103 0
-41 79 87 -1103 0
-2 23 39 1104 0
-2 23 39 -1104 0
2 -5 13 93 0
-37 84 -96 100 0
-59 94 100 1105 0
-59 94 100 -1105 0
-26 -30 -34 1106 0
-34 61 -85 -1106 0
-63 -73 84 85 0
15 -20 -37 1107 0
-37 44 -1107 1108 0
44 49 -1108 1109 0
49 -54 -1109 1110 0
-54 64 -1110 1111 0
64 -85 98 -1111 0
1 -3 -8 1112 0
-8 12 -1112 1113 0
12 18 -1113 1114 0
18 29 -1114 1115 0
29 38 81 -1115 0
-3 7 19 1116 0
19 -22 -1116 1117 0
-22 28 -1117 1118 0
28 -34 54 -1118 0
55 72 -90 1119 0
55 72 -90 -1119 0
-40 -60 -63 -79 0
-27 -57 -66 -86 0
-4 45 56 1120 0
56 -57 -1120 1121 0
-57 -67 -1121 1122 0
-67 -70 -1122 1123 0
-70 73 -1123 1124 0
73 -81 -83 -1124 0
6 -40 55 1125 0
55 77 -100 -1125 0
10 38 -48 1126 0
-48 -56 -1126 1127 0
-56 -61 -93 -1127 0
-31 -84 -86 1128 0
-31 -84 -86 -1128 0
-23 36 1129 1130 0
-23 36 1129 -1130 0
-23 36 -1129 1130 0
-23 36 -1129 -1130 0
-39 43 -95 -98 0
12 35 40 99 0
-47 -87 1131 1132 0
-47 -87 1131 -1132 0
-47 -87 -1131 1132 0
-47 -87 -1131 -1132 0
-7 -22 27 93 0
17 59 93 1133 0
17 59 93 -1133 0
11 -17 39 1134 0
39 40 -1134 1135 0
40 -52 -1135 1136 0
-52 -82 -94 -1136 0
-3 7 -22 1137 0
-22 36 -1137 1138 0
36 39 -1138 1139 0
39 41 73 -1139 0
-5 25 45 1140 0
45 48 -1140 1141 0
48 49 -1141 1142 0
49 -81 83 -1142 0
-13 35 1143 1144 0
-13 35 1143 -1144 0
-13 35 -1143 1144 0
-13 35 -1143 -1144 0
22 33 -79 99 0
-6 -38 41 -90 0
1 2 54 1145 0
1 2 54 -1145 0
11 30 32 1146 0
32 34 -1146 1147 0
34 69 -1147 1148 0
69 -78 81 -1148 0
28 33 -75 1149 0
28 33 -75 -1149 0
-6 -19 -29 1150 0
-6 -19 -29 -1150 0
57 -66 -78 1151 0
57 -66 -78 -1151 0
-30 89 100 1152 0
-30 89 100 -1152 0
3 4 -39 1153 0
-39 48 -1153 1154 0
48 58 -1154 1155 0
58 -88 94 -1155 0
-15 17 22 1156 0
22 -28 84 -1156 0
25 -27 -60 1157 0
-60 -80 -1157 1158 0
-80 91 -96 -1158 0
7 9 -24 1159 0
-24 26 62 -1159 0
-32 -54 -64 1160 0
-32 -54 -64 -1160 0
-27 -50 -65 1161 0
-27 -50 -65 -1161 0
-9 -22 44 83 0
10 -41 -43 1162 0
-43 -66 -1162 1163 0
-66 68 -69 -1163 0
-7 -11 47 1164 0
47 85 -1164 1165 0
85 -86 -100 -1165 0
-28 59 86 95 0
24 80 -83 1166 0
24 80 -83 -1166 0
70 81 92 95 0
49 -63 67 1167 0
67 -78 -83 -1167 0
-5 9 11 1168 0
11 32 -1168 1169 0
32 -39 -1169 1170 0
-39 -48 -1170 1171 0
-48 -65 -70 -1171 0
17 32 88 89 0
-23 34 35 1172 0
35 -50 -1172 1173 0
-50 -53 80 -1173 0
12 15 37 1174 0
37 -52 -1174 1175 0
-52 -61 -98 -1175 0
12 -33 45 -46 0
-4 -16 -37 1176 0
-37 39 -1176 1177 0
39 40 -1177 1178 0
40 -42 -1178 1179 0
-42 44 -1179 1180 0
44 45 -1180 1181 0
45 -47 -52 -1181 0
11 -32 98 1182 0
11 -32 98 -1182 0
3 18 -41 1183 0
-41 -50 -1183 1184 0
-50 62 -1184 1185 0
62 73 -91 -1185 0
-25 -75 83 84 0
-18 36 -54 89 0
11 28 -68 1186 0
-68 73 90 -1186 0
7 -22 -38 1187 0
-38 -46 74 -1187 0
22 -26 -65 1188 0
-65 71 93 -1188 0
12 26 -37 1189 0
-37 48 -1189 1190 0
48 -87 -94 -1190 0
14 -60 -65 1191 0
14 -60 -65 -1191 0
2 11 13 1192 0
13 18 -1192 1193 0
18 29 -1193 1194 0
29 -43 -1194 1195 0
-43 -46 -1195 1196 0
-46 56 82 -1196 0
-14 22 31 95 0
-18 -49 -58 1197 0
-58 69 -1197 1198 0
69 70 -1198 1199 0
70 77 -87 -1199 0
-9 -41 60 1200 0
60 -65 -1200 1201 0
-65 76 -1201 1202 0
76 -93 98 -1202 0
18 -35 76 80 0
16 -49 -62 1203 0
-62 81 -93 -1203 0
12 -14 -64 83 0
61 71 85 1204 0
85 -91 94 -1204 0
-12 -50 70 99 0
32 33 -38 1205 0
-38 -52 -1205 1206 0
-52 60 -62 -1206 0
16 44 1207 1208 0
16 44 1207 -1208 0
16 44 -1207 1208 0
16 44 -1207 -1208 0
-20 24 -56 67 0
-16 39 -54 1209 0
-54 -59 -1209 1210 0
-59 -63 -1210 1211 0
-63 76 -1211 1212 0
76 81 -1212 1213 0
81 -94 98 -1213 0
-17 41 -48 1214 0
-17 41 -48 -1214 0
14 -17 24 1215 0
24 59 -1215 1216 0
59 -69 -80 -1216 0
58 60 78 1217 0
58 60 78 -1217 0
-13 19 44 -75 0
33 83 86 1218 0
33 83 86 -1218 0
-69 72 -82 1219 0
-69 72 -82 -1219 0
-3 56 57 88 0
-15 55 61 1220 0
61 76 -1220 1221 0
76 91 98 -1221 0
-14 17 -38 -55 0
-28 47 52 1222 0
52 61 -73 -1222 0
-24 35 37 1223 0
37 -58 -1223 1224 0
-58 -60 -1224 1225 0
-60 69 -1225 1226 0
69 -75 -79 -1226 0
-27 78 83 -98 0
8 36 63 -98 0
-8 15 -21 52 0
9 -13 -75 -85 0
-10 41 44 1227 0
44 -51 57 -1227 0
-1 60 74 75 0
-14 23 -26 1228 0
-26 -50 -1228 1229 0
-50 -54 -1229 1230 0
-54 82 -1230 1231 0
82 83 -1231 1232 0
83 -90 -95 -1232 0
-10 37 39 1233 0
39 56 -1233 1234 0
56 -69 -1234 1235 0
-69 76 -77 -1235 0
22 -32 48 1236 0
48 -59 -1236 1237 0
-59 -91 -97 -1237 0
-1 -31 76 1238 0
76 83 -84 -1238 0
-8 -12 -16 1239 0
-16 26 -1239 1240 0
26 -45 -1240 1241 0
-45 -65 -1241 1242 0
-65 70 -1242 1243 0
70 -77 -1243 1244 0
-77 -92 -96 -1244 0
-26 28 68 -94 0
12 79 86 -97 0
8 -13 20 1245 0
20 21 -1245 1246 0
21 56 -1246 1247 0
56 -69 -1247 1248 0
-69 -96 -99 -1248 0
10 11 27 1249 0
27 31 -1249 1250 0
31 -37 -61 -1250 0
3 6 8 1251 0
8 -22 -1251 1252 0
-22 -39 -1252 1253 0
-39 65 -1253 1254 0
65 -75 -1254 1255 0
-75 95 97 -1255 0
-2 -8 90 1256 0
-2 -8 90 -1256 0
19 -38 -79 1257 0
19 -38 -79 -1257 0
14 -27 -37 1258 0
-37 -48 -1258 1259 0
-48 91 -1259 1260 0
91 92 -98 -1260 0
1 7 50 88 0
-16 -23 50 1261 0
50 -71 79 -1261 0
7 -20 -43 1262 0
-43 -62 75 -1262 0
5 6 -17 1263 0
5 6 -17 -1263 0
18 -19 -30 1264 0
-30 -45 -1264 1265 0
-45 -48 -1265 1266 0
-48 -69 -81 -1266 0
-7 -12 18 1267 0
18 19 -1267 1268 0
19 47 -1268 1269 0
47 79 -1269 1270 0
79 -84 91 -1270 0
27 -56 59 1271 0
59 -68 -71 -1271 0
-16 21 50 1272 0
50 -65 69 -1272 0
3 -25 34 1273 0
34 -35 -38 -1273 0
-40 50 1274 1275 0
-40 50 1274 -1275 0
-40 50 -1274 1275 0
-40 50 -1274 -1275 0
3 11 -19 1276 0
-19 -26 -65 -1276 0
2 -3 37 1277 0
37 49 -1277 1278 0
49 73 -1278 1279 0
73 -74 -1279 1280 0
-74 91 92 -1280 0
-3 19 37 1281 0
37 -43 -1281 1282 0
-43 -87 -1282 1283 0
-87 91 -99 -1283 0
22 -44 -48 -60 0
14 38 1284 1285 0
14 38 1284 -1285 0
14 38 -1284 1285 0
14 38 -1284 -1285 0
21 84 -97 1286 0
21 84 -97 -1286 0
1 49 -80 -89 0
31 -93 -95 1287 0
31 -93 -95 -1287 0
7 -18 57 1288 0
57 58 -1288 1289 0
58 -67 -1289 1290 0
-67 -90 -96 -1290 0
27 51 68 1291 0
68 78 -1291 1292 0
78 79 -1292 1293 0
79 -82 -92 -1293 0
21 -60 63 1294 0
63 -69 72 -1294 0
18 27 -65 81 0
71 -78 87 -94 0
13 -21 -38 56 0
-10 47 -51 1295 0
-51 -73 -1295 1296 0
-73 76 -1296 1297 0
76 82 -1297 1298 0
82 -89 -92 -1298 0
-25 28 -40 1299 0
-40 53 -1299 1300 0
53 -58 -1300 1301 0
-58 -74 -1301 1302 0
-74 77 -80 -1302 0
12 24 -46 1303 0
-46 -55 -1303 1304 0
-55 66 -1304 1305 0
66 -67 -85 -1305 0
4 -32 34 73 0
22 77 1306 1307 0
22 77 1306 -1307 0
22 77 -1306 1307 0
22 77 -1306 -1307 0
-12 -41 -67 1308 0
-12 -41 -67 -1308 0
-60 75 1309 1310 0
-60 75 1309 -1310 0
-60 75 -1309 1310 0
-60 75 -1309 -1310 0
-5 34 -40 -82 0
27 -31 -50 1311 0
-50 -59 -1311 1312 0
-59 79 -93 -1312 0
-27 35 -73 1313 0
-73 -87 -1313 1314 0
-87 93 100 -1314 0
-21 34 59 1315 0
-21 34 59 -1315 0
3 -9 -19 26 0
34 44 -72 88 0
51 -52 -74 98 0
-13 -64 -75 -80 0
2 54 -67 -82 0
7 12 28 1316 0
28 30 -1316 1317 0
30 -38 -1317 1318 0
-38 -56 -1318 1319 0
-56 59 -1319 1320 0
59 -69 84 -1320 0
9 14 29 1321 0
29 -66 -1321 1322 0
-66 -78 -84 -1322 0
27 -47 61 1323 0
61 -63 -83 -1323 0
69 -70 82 1324 0
69 -70 82 -1324 0
2 -4 -8 1325 0
-8 35 -1325 1326 0
35 51 -1326 1327 0
51 53 -1327 1328 0
53 -75 -1328 1329 0
-75 78 80 -1329 0
9 58 -63 91 0
-1 -36 -75 1330 0
-75 79 -96 -1330 0
-21 -33 53 -63 0
16 -52 -61 67 0
-4 -13 -20 1331 0
-20 24 -1331 1332 0
24 -37 -1332 1333 0
-37 61 63 -1333 0
-3 6 -21 1334 0
-21 71 84 -1334 0
-46 -75 -86 1335 0
-46 -75 -86 -1335 0
17 -22 25 1336 0
25 -64 -96 -1336 0
-7 -33 -44 1337 0
-44 55 -97 -1337 0
-43 48 -61 1338 0
-61 79 -1338 1339 0
79 -89 -1339 1340 0
-89 93 -1340 1341 0
93 96 -98 -1341 0
26 82 87 94 0
1 19 26 1342 0
26 27 88 -1342 0
-21 24 -37 1343 0
-37 -54 -91 -1343 0
-16 70 78 1344 0
78 81 88 -1344 0
-11 33 52 1345 0
52 -58 -1345 1346 0
-58 -75 -77 -1346 0
61 -78 -83 1347 0
-83 86 100 -1347 0
-11 26 -51 1348 0
-51 69 -1348 1349 0
69 72 -1349 1350 0
72 78 -94 -1350 0
11 22 -56 -85 0
27 -41 76 -78 0
15 24 64 1351 0
64 85 86 -1351 0
25 66 81 93 0
-14 80 -83 1352 0
-14 80 -83 -1352 0
-9 -13 1353 1354 0
-9 -13 1353 -1354 0
-9 -13 -1353 1354 0
-9 -13 -1353 -1354 0
17 48 -65 1355 0
17 48 -65 -1355 0
21 -44 -48 -60 0
-39 41 -42 1356 0
-42 52 -1356 1357 0
52 -56 -1357 1358 0
-56 -59 -1358 1359 0
-59 63 -99 -1359 0
1 -12 -23 1360 0
-23 62 -1360 1361 0
62 86 -1361 1362 0
86 89 -1362 1363 0
89 92 -95 -1363 0
2 20 -25 1364 0
2 20 -25 -1364 0
-29 34 38 1365 0
38 -50 -1365 1366 0
-50 52 56 -1366 0
10 -35 57 1367 0
57 61 -1367 1368 0
61 73 -90 -1368 0
3 13 -22 1369 0
-22 -74 -93 -1369 0
3 -6 -54 1370 0
3 -6 -54 -1370 0
38 99 1371 1372 0
38 99 1371 -1372 0
38 99 -1371 1372 0
38 99 -1371 -1372 0
3 -18 29 1373 0
29 35 -1373 1374 0
35 38 -1374 1375 0
38 40 -1375 1376 0
40 -54 -70 -1376 0
-8 -32 -37 -50 0
14 19 -22 1377 0
-22 -35 -1377 1378 0
-35 -77 -1378 1379 0
-77 -82 -89 -1379 0
3 -5 -8 1380 0
-8 -29 -52 -1380 0
60 84 -94 1381 0
60 84 -94 -1381 0
34 35 -50 1382 0
-50 88 96 -1382 0
2 -11 32 48 0
-5 9 11 1383 0
11 -14 22 -1383 0
3 9 -46 93 0
-35 -39 -43 1384 0
-43 70 -94 -1384 0
7 -72 -82 1385 0
-82 93 94 -1385 0
24 -29 -46 1386 0
-46 53 -1386 1387 0
53 58 -1387 1388 0
58 -63 -1388 1389 0
-63 73 -94 -1389 0
10 -12 -17 1390 0
-17 21 -1390 1391 0
21 27 -1391 1392 0
27 38 -1392 1393 0
38 47 90 -1393 0
-12 16 28 1394 0
28 -31 -1394 1395 0
-31 37 -1395 1396 0
37 -43 63 -1396 0
64 81 -99 1397 0
64 81 -99 -1397 0
-49 -69 -72 -88 0
-36 -66 -75 -95 0
-9 -13 54 1398 0
54 65 -1398 1399 0
65 -66 -1399 1400 0
-66 -76 -1400 1401 0
-76 -79 -1401 1402 0
-79 82 -1402 1403 0
82 -90 -92 -1403 0
-2 15 -49 1404 0
-49 64 86 -1404 0
19 47 -57 1405 0
-57 -65 -70 -1405 0
-40 -93 -95 1406 0
-40 -93 -95 -1406 0
-4 -7 -32 45 0
8 -48 52 1407 0
8 -48 52 -1407 0
21 44 49 1408 0
21 44 49 -1408 0
